(set-logic ALL)
(declare-fun i1 () Int)
(declare-fun it159 () Int)
(declare-fun it160 () Int)
(declare-fun i2 () Int)
(declare-fun it161 () Int)
(declare-fun i3 () Int)
(declare-fun it162 () Int)
(declare-fun i4 () Int)
(declare-fun it163 () Int)
(declare-fun i5 () Int)
(declare-fun it164 () Int)
(declare-fun i6 () Int)
(declare-fun it165 () Int)
(declare-fun it166 () Int)
(declare-fun it167 () Int)
(declare-fun it168 () Int)
(declare-fun it169 () Int)
(declare-fun it170 () Int)
(declare-fun it171 () Int)
(declare-fun it172 () Int)
(declare-fun it173 () Int)
(declare-fun it174 () Int)
(declare-fun it175 () Int)
(declare-fun it176 () Int)
(declare-fun it178 () Int)
(declare-fun it179 () Int)
(declare-fun it180 () Int)
(declare-fun it181 () Int)
(declare-fun it182 () Int)
(declare-fun it183 () Int)
(declare-fun it184 () Int)
(declare-fun it185 () Int)
(declare-fun it186 () Int)
(declare-fun it187 () Int)
(declare-fun it188 () Int)
(declare-fun it189 () Int)
(declare-fun it222 () Int)
(declare-fun it223 () Int)
(declare-fun it224 () Int)
(declare-fun it225 () Int)
(declare-fun it226 () Int)
(declare-fun it227 () Int)
(declare-fun it87 () Int)
(assert (= (+ i1 (- 1)) 0))
(assert (= (+ it159 (- 2)) 0))
(assert (= (+ (* i2 (- 1)) it160 (- 1)) 0))
(assert (= (+ (* i3 (- 1)) it161) 0))
(assert (= (+ (* i4 (- 1)) it162) 0))
(assert (= (+ (* i5 (- 1)) it163) 0))
(assert (= (+ (* i6 (- 1)) it164) 0))
(assert (and (>= (+ it161 (- 3)) 0) (= (+ it159 (- 2)) 0)))
(assert (= (+ it165 (- 5)) 0))
(assert (= (+ it166 (* it160 (- 1)) (- 2)) 0))
(assert (= (+ it167 (* it161 (- 1))) 0))
(assert (= it168 0))
(assert (= (+ it169 (* it163 (- 1))) 0))
(assert (= (+ it170 (* it164 (- 1))) 0))
(assert (and (>= (+ it167 (* it168 (- 1)) (- 2)) 0) (= (+ it165 (- 5)) 0)))
(assert (= (+ it171 (- 7)) 0))
(assert (= (+ (* it166 (- 1)) it172 (- 2)) 0))
(assert (= (+ (* it167 (- 1)) it173) 0))
(assert (= (+ it174 (* it168 (- 1))) 0))
(assert (= it175 0))
(assert (= (+ (* it170 (- 1)) it176) 0))
(assert (and (= (+ it171 (- 7)) 0)
     (>= (+ (* it174 (- 1)) (* it175 (- 2)) it173 (- 3)) 0)))
(assert (= (+ it178 (- 8)) 0))
(assert (= (+ (* it172 (- 1)) it179 (- 1)) 0))
(assert (= (+ it180 (* it173 (- 1))) 0))
(assert (= (+ (* it174 (- 1)) it181) 0))
(assert (= (+ (* it175 (- 1)) it182) 0))
(assert (= (+ it183 (* it176 (- 1))) 0))
(assert (and (= (+ it180 (* it181 (- 1)) (* it182 (- 2)) (- 3)) 0)
     (= (+ it178 (- 8)) 0)))
(assert (= (+ it184 (- 13)) 0))
(assert (= (+ it185 (* it179 (- 1)) (- 2)) 0))
(assert (= (+ (* it180 (- 1)) it186) 0))
(assert (= (+ it187 (* it181 (- 1))) 0))
(assert (= (+ it188 (* it182 (- 1))) 0))
(assert (= (+ (* it182 (- 2)) it189 (- 1)) 0))
(assert (= (+ it184 (- 13)) 0))
(assert (= (+ it222 (- 7)) 0))
(assert (= (+ it223 (* it185 (- 1)) (- 1)) 0))
(assert (= (+ it224 (* it186 (- 1))) 0))
(assert (= (+ (* it187 (- 1)) it225) 0))
(assert (= (+ it226 (* it186 (- 1))) 0))
(assert (= (+ it227 (* it189 (- 1))) 0))
(assert (let ((a!1 (* (* (exp 2 (+ it87 (- 1))) (+ 0 it226)) (+ 0 (- 2))))
      (a!3 (* (* (exp 2 (+ it87 (- 1))) (+ 0 it226)) (+ 0 2))))
(let ((a!2 (+ (* (exp 2 (+ it87 (- 1))) (+ 0 (- 2)))
              (+ 0 it224)
              (+ 0 (* it225 (- 1)))
              a!1
              (+ 0 (- 1))))
      (a!4 (+ (* (exp 2 (+ it87 (- 1))) (+ 0 2))
              (+ 0 (* it224 (- 1)))
              (+ 0 it225)
              a!3
              (+ 0 1))))
  (and (>= (+ it222 (- 7)) 0)
       (>= a!2 (+ 0 0))
       (>= (+ it224 (* it225 (- 1)) (* it226 (- 2)) (- 3)) 0)
       (>= (+ (* it222 (- 1)) 7) 0)
       (>= (+ (* it224 (- 1)) it225 (* it226 2) 3) 0)
       (>= (+ it87 (- 1)) 0)
       (>= a!4 (+ 0 0))))))
(check-sat)
